# =====================================================
# ARCHIVO COMPLETO - MODELO ALCACHOFAS
# =====================================================

param H := 64;

set PRODUCTOS :=
B15_con B15_sin B24_con B24_sin B6_con B6_sin B30_con B30_sin T_con T_sin;

set CLIENTES :=
C1 C2 C3 C4 C5 C6 C7 C8 C9 C10 C11 C12 C13 C14 C15;

set ETAPAS :=
PeladoMaquina PeladoMano Cortado Confitadora Bandejas Congelacion Aceite Termosellado Cajas;

set DIAS := D1 D2 D3 D4 D5 D6 D7;

# =====================================================
# DISPONIBILIDAD DIARIA
# =====================================================

param CantAlcach :=
D1 705500
D2 948750
D3 962250
D4 992000
D5 905500
D6 905500
D7 905500;

# =====================================================
# RATIO MAXIMO
# =====================================================

param RatioRealMax:
        PeladoMaquina PeladoMano Cortado Confitadora Bandejas Congelacion Aceite Termosellado Cajas :=

B15_con   1045 605 0   1100 990 1320 2200 1100 1980
B15_sin   1045 605 0   1100 990 1320 0    1100 1980
B24_con   1045 605 0   1100 825 1210 2200 1100 1760
B24_sin   1045 605 0   1100 825 1210 0    1100 1760
B6_con    1045 605 0   1100 660 1001  2090 1100 1540
B6_sin    1045 605 0   1100 660 1001  0    1100 1540
B30_con   1045 605 0   1100 550 935  2090 1100 1320
B30_sin   1045 605 0   1100 550 935  0    1100 1320
T_con     1045 605 715 0    990 1540 2200 1100 1870
T_sin     1045 605 715 0    990 1540 0    1100 1870;

# =====================================================
# DEMANDA MINIMA
# =====================================================

param DemandaMin:
C1 C2 C3 C4 C5 C6 C7 C8 C9 C10 C11 C12 C13 C14 C15 :=

B15_con 180 200 230 60 170 420 160 190 220 50 0 0 210 450 170
B15_sin 160 0 210 70 150 400 0 210 0 60 180 90 220 470 0
B24_con 150 210 220 80 0 380 170 200 230 0 250 100 0 430 190
B24_sin 170 190 200 90 160 0 180 220 0 70 260 0 200 0 200
B6_con 190 220 0 100 180 410 190 210 210 0 0 110 0 480 0
B6_sin 160 200 210 0 170 0 170 0 240 80 0 120 210 0 200
B30_con 170 0 200 90 170 430 0 200 220 90 270 0 0 0 210
B30_sin 180 180 0 110 0 420 200 0 230 0 240 130 190 500 0
T_con 150 0 140 0 0 300 0 130 150 0 0 0 0 320 0
T_sin 150 0 140 0 0 300 0 130 150 0 0 0 0 320 0 ;

/*param DemandaMin:
C1 C2 C3 C4 C5 C6 C7 C8 C9 C10 C11 C12 C13 C14 C15 :=

B15_con 18 20 23 6 17 42 16 19 22 5 0 0 21 45 17
B15_sin 16 0 21 7 15 40 0 21 0 6 18 9 22 47 0
B24_con 15 21 22 8 0 38 17 20 23 0 25 10 0 43 19
B24_sin 17 19 20 9 16 0 18 22 0 7 26 0 20 0 20
B6_con 19 22 0 10 18 41 19 21 21 0 0 11 0 48 0
B6_sin 16 20 21 0 17 0 17 0 24 8 0 12 21 0 20
B30_con 17 0 20 9 17 43 0 20 22 9 27 0 0 0 21
B30_sin 18 18 0 11 0 42 20 0 23 0 24 13 19 50 0
T_con 15 0 14 0 0 30 0 13 15 0 0 0 0 32 0
T_sin 15 0 14 0 0 30 0 13 15 0 0 0 0 32 0 ;*/



# =====================================================
# DEMANDA MAXIMA
# =====================================================

param DemandaMax:
C1 C2 C3 C4 C5 C6 C7 C8 C9 C10 C11 C12 C13 C14 C15 :=

B15_con 3800 4000 4300 750 3700 6200 3600 3900 4200 650 0 0 4100 6500 3700
B15_sin 3600 0 4100 850 3500 6000 0 4100 0 750 3800 1100 4200 6700 0
B24_con 3500 4100 4200 900 0 5800 3700 4000 4300 0 4500 2000 0 6300 3900
B24_sin 3700 3900 4000 950 3600 0 3800 4200 0 850 4600 0 4000 0 4000
B6_con 3900 4200 0 1100 3800 6100 3900 4100 4100 0 0 2100 0 6800 0
B6_sin 3600 4000 4100 0 3700 0 3700 0 4400 900 0 2200 4100 0 4000
B30_con 3700 0 4000 1000 3750 6300 0 4050 4250 1000 4700 0 0 0 4100
B30_sin 3800 3800 0 1200 0 6200 4000 0 4300 0 4400 2300 3900 7000 0
T_con 3500 0 3400 0 0 5000 0 3300 3500 0 0 0 0 5200 0
T_sin 3500 0 3400 0 0 5000 0 3300 3500 0 0 0 0 5200 0 ;

# =====================================================
# PRECIO (GANANCIA POR UNIDAD)
# =====================================================

param Precio:
C1 C2 C3 C4 C5 C6 C7 C8 C9 C10
C11 C12 C13 C14 C15 :=

B15_con
11 10 12 9 10 8 11 9 10 8
0 0 11 0 9

B15_sin
10 0 11 8 9 7 0 10 0 7
9 8 10 11 0

B24_con
12 11 13 10 0 9 12 10 11 0
13 10 0 12 11

B24_sin
11 10 11 9 10 0 11 10 0 8
12 0 11 0 10

B6_con
13 12 0 11 12 10 12 11 11 0
0 11 0 13 0

B6_sin
12 11 12 0 11 0 11 0 13 9
0 10 12 0 11

B30_con
14 0 13 12 13 11 0 12 13 12
15 0 0 0 13

B30_sin
13 13 0 12 0 11 13 0 13 0
14 12 13 15 0

T_con
9 0 8 0 0 7 0 8 9 0
0 0 0 9 0

T_sin
8 0 7 0 0 6 0 6 7 0
0 0 0 7 0 ;

# =====================================================
# TIPOS DE ETAPA
# =====================================================

param TipoEtapas :=
PeladoMaquina 3
PeladoMano 1
Cortado 2
Confitadora 2
Bandejas 1
Congelacion 3
Aceite 2
Termosellado 2
Cajas 1;

# =====================================================
# COSTES
# =====================================================

param MantFijas :=
PeladoMano 20
Bandejas 40
Cajas 35;

param MantBinarias:
        Cortado Confitadora Aceite Termosellado :=

B15_con   0 7 5 4
B15_sin   0 7 0 4
B24_con   0 8 6 4
B24_sin   0 8 0 4
B6_con    0 7 5 4
B6_sin    0 7 0 4
B30_con   0 8 6 4
B30_sin   0 8 0 4
T_con     5 0 5 5
T_sin     5 0 0 5;

param MantVariables:
        PeladoMaquina Congelacion :=

B15_con   5 5
B15_sin   5 5
B24_con   6 6
B24_sin   6 6
B6_con    4 4
B6_sin    4 4
B30_con   7 7
B30_sin   7 7
T_con     4 4
T_sin     4 4;

param CosteInicial :=
PeladoMaquina 0
PeladoMano 0
Cortado 0
Confitadora 82
Bandejas 0
Congelacion 53
Aceite 0
Termosellado 12
Cajas 0;

# =====================================================
# SUBPRODUCTO NECESARIO
# =====================================================

param SubProdNecesario:
        PeladoMaquina PeladoMano Cortado Confitadora
        Bandejas Congelacion Aceite Termosellado Cajas :=

B15_con   1 1 0 1 5 1 1 1 3
B15_sin   1 1 0 1 5 1 0 1 3

B24_con   1 1 0 1 6 1 1 1 4
B24_sin   1 1 0 1 6 1 0 1 4

B6_con    1 1 0 1 6 1 1 1 1
B6_sin    1 1 0 1 6 1 0 1 1

B30_con   1 1 0 1 6 1 1 1 5
B30_sin   1 1 0 1 6 1 0 1 5

T_con     1 1 1 0 4 1 1 1 5
T_sin     1 1 1 0 4 1 0 1 5;

# =====================================================
# RECETA
# =====================================================

param Receta:
        PeladoMaquina PeladoMano Cortado Confitadora Bandejas Congelacion Aceite Termosellado Cajas :=

B15_con   1 1 0 1 1 1 1 1 1
B15_sin   1 1 0 1 1 1 0 1 1
B24_con   1 1 0 1 1 1 1 1 1
B24_sin   1 1 0 1 1 1 0 1 1
B6_con    1 1 0 1 1 1 1 1 1
B6_sin    1 1 0 1 1 1 0 1 1
B30_con   1 1 0 1 1 1 1 1 1
B30_sin   1 1 0 1 1 1 0 1 1
T_con     1 1 1 0 1 1 1 1 1
T_sin     1 1 1 0 1 1 0 1 1;